c description: Random 3-CNF over 6 variables and 18 clauses
c generator: CNFgen (0.9.0)
c copyright: (C) 2012-2020 Massimo Lauria <massimo.lauria@uniroma1.it>
c url: https://massimolauria.net/cnfgen
c
p cnf 6 18
-3 -4 -6 0
-4 5 6 0
-1 3 -6 0
-2 5 -6 0
-1 5 6 0
1 4 5 0
1 -2 6 0
4 5 6 0
-3 4 5 0
3 4 6 0
3 4 -6 0
3 -4 6 0
1 -2 -4 0
-2 -3 -5 0
-2 -5 6 0
-2 4 6 0
3 5 -6 0
1 -4 -5 0